c FILE: i080-101

c SOURCE: From steinlib

c DESCRIPTION: Steinlib instance with 80 nodes and 120 edges.

p edge 80 120
e 1 3
e 1 44
e 1 51
e 1 54
e 1 56
e 1 59
e 1 63
e 2 26
e 2 43
e 2 49
e 3 4
e 3 69
e 3 77
e 4 37
e 4 56
e 4 64
e 5 75
e 6 7
e 6 11
e 6 70
e 8 19
e 8 45
e 8 59
e 9 14
e 10 47
e 10 63
e 12 24
e 13 49
e 13 51
e 14 33
e 14 58
e 14 80
e 15 24
e 16 19
e 16 39
e 16 57
e 16 66
e 16 72
e 17 21
e 17 45
e 18 66
e 19 63
e 20 21
e 20 42
e 20 60
e 21 34
e 21 60
e 22 24
e 22 34
e 22 39
e 23 42
e 23 71
e 24 33
e 25 57
e 25 72
e 25 75
e 26 28
e 26 41
e 27 32
e 27 53
e 27 74
e 27 77
e 28 40
e 28 56
e 28 76
e 29 48
e 30 66
e 31 39
e 31 41
e 31 79
e 32 73
e 32 80
e 33 38
e 33 56
e 33 62
e 33 68
e 34 37
e 34 52
e 35 46
e 35 52
e 35 62
e 36 44
e 36 78
e 37 51
e 37 52
e 37 67
e 38 61
e 39 44
e 39 62
e 40 44
e 42 60
e 42 65
e 42 66
e 43 47
e 43 75
e 44 66
e 46 65
e 46 79
e 47 63
e 47 73
e 48 52
e 48 58
e 50 53
e 50 61
e 50 65
e 51 53
e 51 76
e 52 70
e 52 80
e 53 57
e 53 73
e 54 78
e 55 64
e 56 58
e 56 80
e 60 61
e 61 71
e 63 78
e 64 66
e 75 76
